(declare-fun var0 () String)
(assert (str.in.re var0 (re.++ (re.+ (re.+ (str.to.re "ggg"))) (re.++ (re.union (re.+ (str.to.re "dd")) (re.union (str.to.re "ee") (str.to.re "fff"))) (re.++ (re.+ (re.+ (str.to.re "c"))) (re.++ (re.* (re.+ (str.to.re "bbb"))) (re.++ (re.+ (re.* (str.to.re "aaa"))) (re.++ (re.union (re.+ (str.to.re "888")) (re.+ (str.to.re "9"))) (re.++ (re.union (re.+ (str.to.re "66")) (re.+ (str.to.re "7"))) (re.++ (re.union (re.+ (str.to.re "444")) (re.* (str.to.re "5"))) (re.++ (re.* (re.* (str.to.re "33"))) (re.union (re.+ (str.to.re "000")) (re.union (str.to.re "11") (str.to.re "22"))))))))))))))
(assert (<= 351 (str.len var0)))
(check-sat)